p edges 12 29
e 1 2
e 1 4
e 1 5
e 1 8
e 1 11
e 2 3
e 2 5
e 2 6
e 2 9
e 2 12
e 3 6
e 4 5
e 4 7
e 4 8
e 4 11
e 5 6
e 5 8
e 5 9
e 5 12
e 6 9
e 7 8
e 7 10
e 7 11
e 8 9
e 8 11
e 8 12
e 9 12
e 10 11
e 11 12